NAME          BLANK   
ROWS
 N  OBJROW
 L  R0000000
COLUMNS
    C0000000  OBJROW     -658.         R0000000  174.        
    C0000001  OBJROW     -305.         R0000000  157.        
    C0000002  OBJROW     -378.         R0000000  196.        
    C0000003  OBJROW     -976.         R0000000  808.        
    C0000004  OBJROW     -489.         R0000000  211.        
    C0000005  OBJROW     -363.         R0000000  196.        
    C0000006  OBJROW     -924.         R0000000  722.        
    C0000007  OBJROW     -389.         R0000000  529.        
    C0000008  OBJROW     -381.         R0000000  523.        
    C0000009  OBJROW     -998.         R0000000  504.        
    C0000010  OBJROW     -955.         R0000000  369.        
    C0000011  OBJROW     -143.         R0000000  634.        
    C0000012  OBJROW     -276.         R0000000  839.        
    C0000013  OBJROW     -237.         R0000000  309.        
    C0000014  OBJROW     -227.         R0000000  845.        
    C0000015  OBJROW     -955.         R0000000  111.        
    C0000016  OBJROW     -975.         R0000000  263.        
    C0000017  OBJROW     -776.         R0000000  568.        
    C0000018  OBJROW     -558.         R0000000  75.         
    C0000019  OBJROW     -278.         R0000000  315.        
RHS
    RHS       R0000000  13900.      
BOUNDS
 BV BOUND     C0000000  1.          
 BV BOUND     C0000001  1.          
 BV BOUND     C0000002  1.          
 BV BOUND     C0000003  1.          
 BV BOUND     C0000004  1.          
 BV BOUND     C0000005  1.          
 BV BOUND     C0000006  1.          
 BV BOUND     C0000007  1.          
 BV BOUND     C0000008  1.          
 BV BOUND     C0000009  1.          
 BV BOUND     C0000010  1.          
 BV BOUND     C0000011  1.          
 BV BOUND     C0000012  1.          
 BV BOUND     C0000013  1.          
 BV BOUND     C0000014  1.          
 BV BOUND     C0000015  1.          
 BV BOUND     C0000016  1.          
 BV BOUND     C0000017  1.          
 BV BOUND     C0000018  1.          
 BV BOUND     C0000019  1.          
ENDATA
